25° run output:
{
    "Function": "kroA400.tsp",
    "Problem dimension": [
        200,
        65,
        62,
        51,
        240,
        293,
        72,
        346,
        353,
        164,
        284,
        173,
        291,
        238,
        233,
        149,
        257,
        274,
        46,
        126,
        182,
        345,
        1,
        194,
        397,
        102,
        38,
        27,
        338,
        33,
        74,
        270,
        378,
        272,
        251,
        224,
        191,
        123,
        19,
        145,
        128,
        360,
        127,
        31,
        25,
        109,
        379,
        96,
        282,
        14,
        308,
        49,
        4,
        180,
        230,
        50,
        133,
        323,
        114,
        45,
        154,
        226,
        313,
        261,
        144,
        160,
        296,
        369,
        255,
        158,
        326,
        195,
        349,
        281,
        357,
        69,
        85,
        112,
        167,
        260,
        104,
        136,
        186,
        247,
        389,
        215,
        351,
        64,
        244,
        393,
        391,
        77,
        315,
        298,
        320,
        67,
        192,
        395,
        332,
        264,
        161,
        48,
        82,
        276,
        285,
        163,
        219,
        2,
        322,
        339,
        83,
        398,
        190,
        350,
        134,
        388,
        156,
        176,
        370,
        5,
        340,
        337,
        267,
        342,
        311,
        179,
        187,
        155,
        329,
        262,
        79,
        157,
        352,
        278,
        113,
        170,
        288,
        301,
        37,
        376,
        362,
        254,
        88,
        387,
        386,
        30,
        210,
        336,
        304,
        235,
        317,
        246,
        256,
        302,
        76,
        132,
        70,
        165,
        341,
        364,
        318,
        75,
        168,
        381,
        59,
        162,
        152,
        205,
        327,
        273,
        287,
        36,
        377,
        202,
        295,
        367,
        385,
        95,
        80,
        68,
        303,
        283,
        6,
        122,
        321,
        236,
        175,
        354,
        151,
        394,
        111,
        218,
        116,
        206,
        193,
        396,
        217,
        199,
        57,
        229,
        294,
        307,
        24,
        196,
        220,
        47,
        384,
        237,
        248,
        227,
        363,
        309,
        209,
        181,
        20,
        208,
        138,
        328,
        135,
        17,
        361,
        91,
        98,
        319,
        118,
        178,
        73,
        289,
        185,
        358,
        22,
        365,
        334,
        16,
        52,
        356,
        115,
        300,
        11,
        108,
        241,
        174,
        221,
        110,
        249,
        305,
        143,
        214,
        390,
        89,
        330,
        359,
        275,
        263,
        141,
        211,
        297,
        93,
        250,
        280,
        130,
        213,
        35,
        18,
        3,
        234,
        335,
        325,
        78,
        343,
        239,
        159,
        106,
        54,
        231,
        148,
        292,
        355,
        28,
        183,
        203,
        204,
        312,
        382,
        258,
        310,
        147,
        265,
        228,
        277,
        245,
        121,
        0,
        53,
        333,
        279,
        366,
        60,
        252,
        324,
        107,
        23,
        81,
        15,
        242,
        39,
        259,
        13,
        44,
        212,
        9,
        26,
        373,
        169,
        100,
        56,
        10,
        207,
        101,
        222,
        232,
        223,
        172,
        153,
        139,
        188,
        380,
        137,
        43,
        131,
        84,
        306,
        177,
        42,
        299,
        90,
        184,
        129,
        314,
        216,
        140,
        71,
        290,
        97,
        316,
        41,
        119,
        63,
        266,
        371,
        166,
        253,
        368,
        271,
        372,
        66,
        150,
        94,
        201,
        55,
        21,
        124,
        29,
        7,
        142,
        87,
        374,
        8,
        120,
        171,
        331,
        347,
        40,
        58,
        146,
        92,
        32,
        375,
        243,
        86,
        269,
        268,
        61,
        197,
        105,
        399,
        99,
        125,
        383,
        34,
        225,
        198,
        12,
        348,
        392,
        189,
        117,
        286,
        103,
        344
    ],
    "Global Optimum": 0,
    "Algorithm": "Genetic algorithm",
    "Parameters": {
        "population": 30,
        "offspring": 30,
        "mutation probability": 0.0025,
        "crossover probability": 0.9
    },
    "Fitness": 377673,
    "Solution": [
        200,
        65,
        62,
        51,
        240,
        293,
        72,
        346,
        353,
        164,
        284,
        173,
        291,
        238,
        233,
        149,
        257,
        274,
        46,
        126,
        182,
        345,
        1,
        194,
        397,
        102,
        38,
        27,
        338,
        33,
        74,
        270,
        378,
        272,
        251,
        224,
        191,
        123,
        19,
        145,
        128,
        360,
        127,
        31,
        25,
        109,
        379,
        96,
        282,
        14,
        308,
        49,
        4,
        180,
        230,
        50,
        133,
        323,
        114,
        45,
        154,
        226,
        313,
        261,
        144,
        160,
        296,
        369,
        255,
        158,
        326,
        195,
        349,
        281,
        357,
        69,
        85,
        112,
        167,
        260,
        104,
        136,
        186,
        247,
        389,
        215,
        351,
        64,
        244,
        393,
        391,
        77,
        315,
        298,
        320,
        67,
        192,
        395,
        332,
        264,
        161,
        48,
        82,
        276,
        285,
        163,
        219,
        2,
        322,
        339,
        83,
        398,
        190,
        350,
        134,
        388,
        156,
        176,
        370,
        5,
        340,
        337,
        267,
        342,
        311,
        179,
        187,
        155,
        329,
        262,
        79,
        157,
        352,
        278,
        113,
        170,
        288,
        301,
        37,
        376,
        362,
        254,
        88,
        387,
        386,
        30,
        210,
        336,
        304,
        235,
        317,
        246,
        256,
        302,
        76,
        132,
        70,
        165,
        341,
        364,
        318,
        75,
        168,
        381,
        59,
        162,
        152,
        205,
        327,
        273,
        287,
        36,
        377,
        202,
        295,
        367,
        385,
        95,
        80,
        68,
        303,
        283,
        6,
        122,
        321,
        236,
        175,
        354,
        151,
        394,
        111,
        218,
        116,
        206,
        193,
        396,
        217,
        199,
        57,
        229,
        294,
        307,
        24,
        196,
        220,
        47,
        384,
        237,
        248,
        227,
        363,
        309,
        209,
        181,
        20,
        208,
        138,
        328,
        135,
        17,
        361,
        91,
        98,
        319,
        118,
        178,
        73,
        289,
        185,
        358,
        22,
        365,
        334,
        16,
        52,
        356,
        115,
        300,
        11,
        108,
        241,
        174,
        221,
        110,
        249,
        305,
        143,
        214,
        390,
        89,
        330,
        359,
        275,
        263,
        141,
        211,
        297,
        93,
        250,
        280,
        130,
        213,
        35,
        18,
        3,
        234,
        335,
        325,
        78,
        343,
        239,
        159,
        106,
        54,
        231,
        148,
        292,
        355,
        28,
        183,
        203,
        204,
        312,
        382,
        258,
        310,
        147,
        265,
        228,
        277,
        245,
        121,
        0,
        53,
        333,
        279,
        366,
        60,
        252,
        324,
        107,
        23,
        81,
        15,
        242,
        39,
        259,
        13,
        44,
        212,
        9,
        26,
        373,
        169,
        100,
        56,
        10,
        207,
        101,
        222,
        232,
        223,
        172,
        153,
        139,
        188,
        380,
        137,
        43,
        131,
        84,
        306,
        177,
        42,
        299,
        90,
        184,
        129,
        314,
        216,
        140,
        71,
        290,
        97,
        316,
        41,
        119,
        63,
        266,
        371,
        166,
        253,
        368,
        271,
        372,
        66,
        150,
        94,
        201,
        55,
        21,
        124,
        29,
        7,
        142,
        87,
        374,
        8,
        120,
        171,
        331,
        347,
        40,
        58,
        146,
        92,
        32,
        375,
        243,
        86,
        269,
        268,
        61,
        197,
        105,
        399,
        99,
        125,
        383,
        34,
        225,
        198,
        12,
        348,
        392,
        189,
        117,
        286,
        103,
        344
    ],
    "Nb of functions evaluations": 400020,
    "Computational time in seconds": 1163.8353838920593,
    "Stopping criterion in evaluations": 400000
}